(set-option :print-success false)
(set-logic QF_UF)
(declare-sort x90 0)
(declare-sort x11 0)
(declare-fun x10 () x11)
(declare-fun x60 (x11 x11) x11)
(declare-fun x131 () x11)
(declare-fun x7 () x11)
(declare-fun x56 () x11)
(declare-fun x138 (x11 x11) x11)
(declare-fun x23 () x11)
(assert (let ((x4 (x60 x23 x131)) (x125 (x60 x23 x7)) (x85 (x60 x7 x10)) (x147 (x60 x56 x56)) (x86 (x60 x10 x23)) (x16 (x60 x56 x23)) (x13 (x60 x10 x131)) (x72 (x60 x131 x56)) (x137 (x60 x7 x131)) (x33 (x60 x56 x10)) (x139 (x60 x131 x23)) (x149 (x60 x7 x23)) (x130 (x60 x7 x56)) (x83 (x60 x23 x56)) (x64 (x60 x131 x131)) (x143 (x60 x23 x10)) (x48 (x60 x131 x7)) (x105 (x60 x56 x7)) (x34 (x60 x10 x10)) (x89 (x60 x131 x10)) (x66 (x60 x7 x7)) (x112 (x60 x10 x56)) (x46 (x60 x10 x7)) (x140 (x60 x23 x23)) (x3 (x60 x56 x131))) (or (or (and (and (and (and (not (= (x60 x48 x48) x131)) (not (= (x60 x105 x105) x56))) (not (= (x60 x125 x125) x23))) (not (= x7 (x60 x66 x66)))) (not (= x10 (x60 x46 x46)))) (or (and (and (and (and (not (= x131 (x60 x139 x139))) (not (= (x60 x16 x16) x56))) (not (= x23 (x60 x140 x140)))) (not (= x7 (x60 x149 x149)))) (not (= x10 (x60 x86 x86)))) (or (and (not (= x10 (x60 x112 x112))) (and (not (= (x60 x130 x130) x7)) (and (and (not (= x56 (x60 x147 x147))) (not (= (x60 x72 x72) x131))) (not (= x23 (x60 x83 x83)))))) (and (not (= x10 (x60 x13 x13))) (and (and (and (not (= x131 (x60 x64 x64))) (not (= (x60 x3 x3) x56))) (not (= x23 (x60 x4 x4)))) (not (= (x60 x137 x137) x7))))))) (and (not (= x10 (x60 x34 x34))) (and (not (= (x60 x85 x85) x7)) (and (and (not (= (x60 x33 x33) x56)) (not (= (x60 x89 x89) x131))) (not (= (x60 x143 x143) x23))))))))
(assert (or (and (not (= (x60 x10 x10) x10)) (and (and (and (not (= x56 (x60 x56 x10))) (not (= (x60 x131 x10) x131))) (not (= x23 (x60 x23 x10)))) (not (= (x60 x7 x10) x7)))) (or (and (not (= x10 (x60 x10 x7))) (and (and (and (not (= (x60 x131 x7) x131)) (not (= x56 (x60 x56 x7)))) (not (= x23 (x60 x23 x7)))) (not (= (x60 x7 x7) x7)))) (or (or (and (not (= (x60 x10 x131) x10)) (and (and (not (= (x60 x23 x131) x23)) (and (not (= x131 (x60 x131 x131))) (not (= x56 (x60 x56 x131))))) (not (= x7 (x60 x7 x131))))) (and (not (= x10 (x60 x10 x56))) (and (not (= x7 (x60 x7 x56))) (and (not (= (x60 x23 x56) x23)) (and (not (= x131 (x60 x131 x56))) (not (= x56 (x60 x56 x56)))))))) (and (and (not (= (x60 x7 x23) x7)) (and (and (not (= x131 (x60 x131 x23))) (not (= (x60 x56 x23) x56))) (not (= x23 (x60 x23 x23))))) (not (= (x60 x10 x23) x10)))))))
(assert (not (and (and (and (and (and (and (= x56 (x60 x7 x10)) (and (= x23 (x60 x7 x7)) (and (and (= (x60 x7 x56) x10) (and (= (x60 x7 x131) x131) (and (and (and (and (= x131 (x60 x23 x56)) (and (and (= x7 (x60 x56 x10)) (and (and (and (= x56 (x60 x56 x56)) (and (= (x60 x56 x131) x23) (and (= (x60 x131 x10) x10) (and (and (= x131 (x60 x131 x23)) (and (= x56 (x60 x131 x131)) (= (x60 x131 x56) x23))) (= x7 (x60 x131 x7)))))) (= x10 (x60 x56 x23))) (= (x60 x56 x7) x131))) (= x7 (x60 x23 x131)))) (= (x60 x23 x23) x56)) (= (x60 x23 x7) x10)) (= x23 (x60 x23 x10))))) (= x7 (x60 x7 x23))))) (= x10 (x60 x10 x131))) (= x7 (x60 x10 x56))) (= (x60 x10 x23) x23)) (= x56 (x60 x10 x7))) (= x131 (x60 x10 x10)))))
(assert (let ((x64 (x60 x131 x131)) (x3 (x60 x56 x56)) (x13 (x60 x10 x10)) (x4 (x60 x23 x23)) (x137 (x60 x7 x7))) (or (or (or (not (= (x60 x4 x4) x4)) (or (not (= x3 (x60 x3 x3))) (not (= x64 (x60 x64 x64))))) (not (= (x60 x137 x137) x137))) (not (= x13 (x60 x13 x13))))))
(assert (and (not (= x10 x7)) (and (and (and (and (and (not (= x56 x23)) (and (not (= x131 x10)) (and (and (not (= x56 x131)) (not (= x23 x131))) (not (= x131 x7))))) (not (= x56 x7))) (not (= x56 x10))) (not (= x23 x7))) (not (= x23 x10)))))
(assert (let ((x66 (x60 x7 x7)) (x140 (x60 x23 x23)) (x46 (x60 x10 x7)) (x86 (x60 x10 x23)) (x143 (x60 x23 x10)) (x64 (x60 x131 x131)) (x33 (x60 x56 x10)) (x13 (x60 x10 x131)) (x137 (x60 x7 x131)) (x3 (x60 x56 x131)) (x130 (x60 x7 x56)) (x85 (x60 x7 x10)) (x16 (x60 x56 x23)) (x139 (x60 x131 x23)) (x89 (x60 x131 x10)) (x72 (x60 x131 x56)) (x147 (x60 x56 x56)) (x149 (x60 x7 x23)) (x4 (x60 x23 x131)) (x112 (x60 x10 x56)) (x34 (x60 x10 x10)) (x48 (x60 x131 x7)) (x83 (x60 x23 x56)) (x105 (x60 x56 x7)) (x125 (x60 x23 x7))) (or (or (or (or (and (and (and (and (not (= (x60 x64 x131) x64)) (not (= x3 (x60 x3 x56)))) (not (= (x60 x4 x23) x4))) (not (= (x60 x137 x7) x137))) (not (= (x60 x13 x10) x13))) (and (and (not (= x130 (x60 x130 x7))) (and (and (not (= (x60 x147 x56) x147)) (not (= (x60 x72 x131) x72))) (not (= x83 (x60 x83 x23))))) (not (= x112 (x60 x112 x10))))) (and (not (= (x60 x86 x10) x86)) (and (not (= (x60 x149 x7) x149)) (and (not (= x140 (x60 x140 x23))) (and (not (= x16 (x60 x16 x56))) (not (= x139 (x60 x139 x131)))))))) (and (not (= (x60 x46 x10) x46)) (and (not (= x66 (x60 x66 x7))) (and (and (not (= x105 (x60 x105 x56))) (not (= x48 (x60 x48 x131)))) (not (= (x60 x125 x23) x125)))))) (and (not (= (x60 x34 x10) x34)) (and (not (= x85 (x60 x85 x7))) (and (and (not (= x89 (x60 x89 x131))) (not (= (x60 x33 x56) x33))) (not (= (x60 x143 x23) x143))))))))
(assert (let ((x16 (x60 x23 x56)) (x125 (x60 x7 x23)) (x83 (x60 x56 x23)) (x105 (x60 x7 x56)) (x46 (x60 x7 x10)) (x13 (x60 x131 x10)) (x112 (x60 x56 x10)) (x140 (x60 x23 x23)) (x89 (x60 x10 x131)) (x139 (x60 x23 x131)) (x137 (x60 x131 x7)) (x149 (x60 x23 x7)) (x66 (x60 x7 x7)) (x33 (x60 x10 x56)) (x48 (x60 x7 x131)) (x85 (x60 x10 x7)) (x86 (x60 x23 x10)) (x64 (x60 x131 x131)) (x72 (x60 x56 x131)) (x130 (x60 x56 x7)) (x143 (x60 x10 x23)) (x4 (x60 x131 x23)) (x147 (x60 x56 x56)) (x3 (x60 x131 x56)) (x34 (x60 x10 x10))) (and (and (and (and (and (and (and (and (or (or (or (= x64 x23) (or (= x64 x56) (= x64 x131))) (= x7 x64)) (= x64 x10)) (or (= x3 x10) (or (= x7 x3) (or (= x3 x23) (or (= x3 x131) (= x56 x3)))))) (or (or (or (= x4 x23) (or (= x4 x56) (= x131 x4))) (= x7 x4)) (= x10 x4))) (or (or (or (= x23 x137) (or (= x137 x131) (= x137 x56))) (= x137 x7)) (= x137 x10))) (or (= x13 x10) (or (or (= x23 x13) (or (= x56 x13) (= x131 x13))) (= x13 x7)))) (and (or (= x112 x10) (or (= x7 x112) (or (or (= x112 x56) (= x112 x131)) (= x23 x112)))) (and (and (or (or (= x7 x83) (or (= x23 x83) (or (= x83 x56) (= x131 x83)))) (= x10 x83)) (and (or (= x10 x147) (or (= x7 x147) (or (= x23 x147) (or (= x147 x131) (= x147 x56))))) (or (= x72 x10) (or (= x72 x7) (or (= x72 x23) (or (= x72 x131) (= x56 x72))))))) (or (or (= x7 x130) (or (= x23 x130) (or (= x56 x130) (= x131 x130)))) (= x130 x10))))) (and (or (or (or (= x23 x86) (or (= x131 x86) (= x86 x56))) (= x86 x7)) (= x10 x86)) (and (or (= x149 x10) (or (= x7 x149) (or (= x149 x23) (or (= x56 x149) (= x131 x149))))) (and (or (or (= x7 x140) (or (or (= x140 x56) (= x131 x140)) (= x140 x23))) (= x140 x10)) (and (or (or (or (or (= x16 x56) (= x16 x131)) (= x23 x16)) (= x16 x7)) (= x10 x16)) (or (= x10 x139) (or (or (= x139 x23) (or (= x56 x139) (= x139 x131))) (= x7 x139)))))))) (and (and (and (and (or (or (= x7 x105) (or (= x23 x105) (or (= x105 x131) (= x56 x105)))) (= x105 x10)) (or (or (= x7 x48) (or (= x48 x23) (or (= x48 x131) (= x48 x56)))) (= x10 x48))) (or (= x125 x10) (or (= x125 x7) (or (or (= x125 x56) (= x131 x125)) (= x23 x125))))) (or (= x66 x10) (or (or (or (= x66 x56) (= x66 x131)) (= x23 x66)) (= x66 x7)))) (or (= x46 x10) (or (or (= x23 x46) (or (= x46 x131) (= x56 x46))) (= x7 x46))))) (and (and (and (or (or (or (= x23 x143) (or (= x56 x143) (= x131 x143))) (= x7 x143)) (= x10 x143)) (and (or (or (= x7 x89) (or (= x89 x23) (or (= x89 x131) (= x89 x56)))) (= x10 x89)) (or (or (= x7 x33) (or (or (= x33 x131) (= x56 x33)) (= x23 x33))) (= x10 x33)))) (or (= x85 x10) (or (= x7 x85) (or (= x85 x23) (or (= x56 x85) (= x131 x85)))))) (or (= x34 x10) (or (or (or (= x56 x34) (= x34 x131)) (= x34 x23)) (= x7 x34)))))))
(assert (let ((x137 (x60 x7 x7)) (x13 (x60 x10 x10)) (x4 (x60 x23 x23)) (x3 (x60 x56 x56)) (x64 (x60 x131 x131))) (or (and (not (= x10 x13)) (and (not (= x137 x10)) (and (and (not (= x64 x10)) (not (= x10 x3))) (not (= x10 x4))))) (or (or (and (not (= x23 x13)) (and (and (and (not (= x23 x64)) (not (= x3 x23))) (not (= x23 x4))) (not (= x23 x137)))) (or (and (not (= x13 x56)) (and (and (not (= x4 x56)) (and (not (= x3 x56)) (not (= x56 x64)))) (not (= x137 x56)))) (and (and (and (not (= x131 x4)) (and (not (= x131 x64)) (not (= x3 x131)))) (not (= x137 x131))) (not (= x131 x13))))) (and (not (= x7 x13)) (and (not (= x137 x7)) (and (not (= x7 x4)) (and (not (= x64 x7)) (not (= x7 x3))))))))))
(assert (or (or (and (not (= x10 (x60 x7 (x60 x7 x10)))) (and (not (= (x60 x7 (x60 x7 x7)) x7)) (and (and (not (= x56 (x60 x7 (x60 x7 x56)))) (not (= (x60 x7 (x60 x7 x131)) x131))) (not (= (x60 x7 (x60 x7 x23)) x23))))) (or (or (and (and (and (not (= x23 (x60 x131 (x60 x131 x23)))) (and (not (= x56 (x60 x131 (x60 x131 x56)))) (not (= x131 (x60 x131 (x60 x131 x131)))))) (not (= x7 (x60 x131 (x60 x131 x7))))) (not (= (x60 x131 (x60 x131 x10)) x10))) (and (and (not (= x7 (x60 x56 (x60 x56 x7)))) (and (and (not (= x56 (x60 x56 (x60 x56 x56)))) (not (= (x60 x56 (x60 x56 x131)) x131))) (not (= (x60 x56 (x60 x56 x23)) x23)))) (not (= (x60 x56 (x60 x56 x10)) x10)))) (and (and (not (= (x60 x23 (x60 x23 x7)) x7)) (and (and (not (= x131 (x60 x23 (x60 x23 x131)))) (not (= x56 (x60 x23 (x60 x23 x56))))) (not (= (x60 x23 (x60 x23 x23)) x23)))) (not (= (x60 x23 (x60 x23 x10)) x10))))) (and (not (= (x60 x10 (x60 x10 x10)) x10)) (and (and (and (not (= x56 (x60 x10 (x60 x10 x56)))) (not (= x131 (x60 x10 (x60 x10 x131))))) (not (= x23 (x60 x10 (x60 x10 x23))))) (not (= x7 (x60 x10 (x60 x10 x7))))))))
(assert (let ((x130 (x60 x23 x23)) (x16 (x60 x7 x56)) (x48 (x60 x7 x7)) (x4 (x60 x131 x56)) (x140 (x60 x56 x7)) (x86 (x60 x23 x7)) (x72 (x60 x131 x23)) (x105 (x60 x10 x131)) (x85 (x60 x7 x10)) (x3 (x60 x56 x131)) (x112 (x60 x7 x131)) (x137 (x60 x56 x56)) (x34 (x60 x10 x10)) (x64 (x60 x131 x131)) (x139 (x60 x131 x7)) (x66 (x60 x10 x56)) (x46 (x60 x56 x10)) (x89 (x60 x10 x23)) (x125 (x60 x131 x10)) (x149 (x60 x7 x23)) (x13 (x60 x23 x131)) (x143 (x60 x10 x7)) (x33 (x60 x23 x10)) (x147 (x60 x23 x56)) (x83 (x60 x56 x23))) (or (or (or (or (and (and (and (= x83 x147) (and (= x137 x137) (= x4 x3))) (= x140 x16)) (= x66 x46)) (and (and (and (and (= x3 x4) (= x64 x64)) (= x13 x72)) (= x139 x112)) (= x125 x105))) (and (and (= x149 x86) (and (= x130 x130) (and (= x13 x72) (= x83 x147)))) (= x33 x89))) (and (and (and (and (= x139 x112) (= x16 x140)) (= x86 x149)) (= x48 x48)) (= x143 x85))) (and (and (= x85 x143) (and (= x89 x33) (and (= x105 x125) (= x46 x66)))) (= x34 x34)))))
(assert (let ((x19 (x60 x10 x131)) (x36 (x60 x56 x131)) (x108 (x60 x10 x23)) (x80 (x60 x23 x10)) (x12 (x60 x23 x23)) (x111 (x60 x131 x7)) (x26 (x60 x23 x56)) (x117 (x60 x131 x131)) (x122 (x60 x131 x23)) (x39 (x60 x56 x7)) (x40 (x60 x7 x7)) (x120 (x60 x56 x10)) (x88 (x60 x23 x131)) (x95 (x60 x56 x23)) (x93 (x60 x131 x10)) (x18 (x60 x131 x56)) (x67 (x60 x7 x131)) (x136 (x60 x10 x7)) (x5 (x60 x23 x7)) (x41 (x60 x7 x56)) (x6 (x60 x56 x56)) (x98 (x60 x10 x56)) (x31 (x60 x7 x10)) (x100 (x60 x7 x23)) (x54 (x60 x10 x10))) (let ((x106 (= x6 x23)) (x49 (= x117 x10)) (x66 (= x98 x131)) (x102 (= x23 x26)) (x115 (= x100 x10)) (x132 (= x41 x10)) (x128 (= x18 x10)) (x14 (= x10 x19)) (x104 (= x23 x93)) (x97 (= x122 x23)) (x156 (= x18 x23)) (x87 (= x56 x54)) (x116 (= x12 x56)) (x37 (= x6 x56)) (x134 (= x40 x23)) (x144 (= x7 x12)) (x147 (= x26 x131)) (x150 (= x95 x10)) (x114 (= x67 x7)) (x96 (= x10 x122)) (x52 (= x120 x10)) (x107 (= x56 x41)) (x79 (= x7 x80)) (x110 (= x41 x23)) (x32 (= x10 x54)) (x74 (= x7 x5)) (x119 (= x40 x10)) (x130 (= x131 x12)) (x17 (= x98 x23)) (x42 (= x98 x10)) (x124 (= x136 x7)) (x103 (= x23 x19)) (x112 (= x67 x131)) (x129 (= x36 x23)) (x51 (= x56 x19)) (x57 (= x5 x56)) (x69 (= x7 x120)) (x143 (= x136 x131)) (x44 (= x7 x19)) (x158 (= x108 x23)) (x101 (= x10 x36)) (x151 (= x10 x12)) (x109 (= x23 x100)) (x43 (= x23 x54)) (x25 (= x67 x10)) (x3 (= x36 x131)) (x159 (= x56 x111)) (x50 (= x31 x10)) (x92 (= x93 x10)) (x123 (= x39 x56)) (x73 (= x23 x12)) (x24 (= x95 x23)) (x154 (= x56 x88)) (x84 (= x111 x7)) (x135 (= x56 x80)) (x125 (= x93 x131)) (x99 (= x56 x100)) (x62 (= x23 x31)) (x55 (= x7 x122)) (x58 (= x23 x117)) (x30 (= x23 x120)) (x153 (= x56 x26)) (x127 (= x39 x7)) (x13 (= x131 x88)) (x72 (= x131 x122)) (x16 (= x41 x131)) (x45 (= x7 x95)) (x35 (= x136 x10)) (x105 (= x131 x19)) (x77 (= x7 x40)) (x20 (= x31 x56)) (x157 (= x10 x108)) (x81 (= x111 x10)) (x140 (= x39 x131)) (x68 (= x56 x93)) (x148 (= x39 x23)) (x38 (= x122 x56)) (x118 (= x7 x108)) (x155 (= x5 x23)) (x15 (= x108 x56)) (x4 (= x18 x131)) (x94 (= x95 x56)) (x33 (= x131 x80)) (x46 (= x120 x131)) (x76 (= x56 x120)) (x137 (= x6 x131)) (x91 (= x80 x23)) (x34 (= x131 x54)) (x64 (= x117 x131)) (x152 (= x88 x10)) (x9 (= x7 x18)) (x133 (= x6 x7)) (x146 (= x7 x93)) (x53 (= x31 x7)) (x21 (= x7 x36)) (x83 (= x131 x95)) (x65 (= x56 x36)) (x121 (= x136 x56)) (x78 (= x10 x39)) (x113 (= x88 x23)) (x142 (= x117 x56)) (x59 (= x10 x6)) (x85 (= x131 x31)) (x71 (= x10 x80)) (x86 (= x131 x5)) (x8 (= x40 x56)) (x89 (= x131 x108)) (x141 (= x7 x100)) (x27 (= x56 x18)) (x1 (= x67 x23)) (x63 (= x10 x5)) (x22 (= x7 x54)) (x28 (= x117 x7)) (x47 (= x7 x26)) (x82 (= x26 x10)) (x139 (= x111 x131)) (x48 (= x131 x40)) (x126 (= x23 x111)) (x149 (= x100 x131)) (x145 (= x56 x98)) (x70 (= x88 x7)) (x2 (= x56 x67)) (x29 (= x23 x136)) (x61 (= x41 x7)) (x75 (= x98 x7))) (and (and (or (or (and x22 x22) (or (or (or (and x75 x69) (and x44 x146)) (and x118 x79)) (and x124 x53))) (or (or (or (or (or (or (and x45 x47) (or (and x9 x21) (and x133 x133))) (and x61 x127)) (and x69 x75)) (or (or (or (or (and x28 x28) (and x21 x9)) (and x55 x70)) (and x114 x84)) (and x44 x146))) (or (or (or (and x144 x144) (or (and x55 x70) (and x45 x47))) (and x74 x141)) (and x118 x79))) (or (and x124 x53) (or (and x77 x77) (or (or (and x127 x61) (and x114 x84)) (and x141 x74)))))) (and (and (or (or (or (or (or (or (and x2 x159) (and x107 x123)) (and x99 x57)) (and x8 x8)) (and x121 x20)) (or (or (or (or (or (and x94 x153) (or (and x37 x37) (and x27 x65))) (and x107 x123)) (and x76 x145)) (or (or (or (or (and x65 x27) (and x142 x142)) (and x154 x38)) (and x159 x2)) (and x51 x68))) (or (or (and x99 x57) (or (or (and x154 x38) (and x94 x153)) (and x116 x116))) (and x135 x15)))) (or (and x87 x87) (or (and x121 x20) (or (or (and x145 x76) (and x51 x68)) (and x135 x15))))) (or (or (and x34 x34) (or (and x143 x85) (or (or (and x125 x105) (and x46 x66)) (and x33 x89)))) (or (or (and x143 x85) (or (and x48 x48) (or (and x149 x86) (or (and x16 x140) (and x139 x112))))) (or (or (or (and x125 x105) (or (or (and x72 x13) (or (and x3 x4) (and x64 x64))) (and x112 x139))) (or (and x46 x66) (or (and x140 x16) (or (or (and x3 x4) (and x137 x137)) (and x147 x83))))) (or (or (or (and x130 x130) (or (and x72 x13) (and x147 x83))) (and x86 x149)) (and x33 x89)))))) (or (or (or (and x29 x62) (or (and x134 x134) (or (or (and x110 x148) (and x126 x1)) (and x109 x155)))) (or (or (or (or (or (or (and x156 x129) (and x58 x58)) (and x97 x113)) (and x126 x1)) (and x103 x104)) (or (and x30 x17) (or (and x148 x110) (or (and x24 x102) (or (and x106 x106) (and x156 x129)))))) (or (and x91 x158) (or (or (or (and x24 x102) (and x113 x97)) (and x73 x73)) (and x155 x109))))) (or (and x43 x43) (or (or (or (and x104 x103) (and x17 x30)) (and x91 x158)) (and x29 x62)))))) (or (or (or (or (or (or (or (or (and x101 x128) (and x59 x59)) (and x82 x150)) (and x78 x132)) (and x42 x52)) (or (and x92 x14) (or (and x25 x81) (or (or (and x101 x128) (and x49 x49)) (and x96 x152))))) (or (and x157 x71) (or (and x63 x115) (or (or (and x96 x152) (and x82 x150)) (and x151 x151))))) (or (or (or (and x63 x115) (or (and x81 x25) (and x132 x78))) (and x119 x119)) (and x35 x50))) (or (and x32 x32) (or (and x35 x50) (or (or (and x14 x92) (and x52 x42)) (and x71 x157)))))))))
(assert (let ((x125 (x60 x23 x7)) (x143 (x60 x23 x10)) (x112 (x60 x10 x56)) (x13 (x60 x10 x131)) (x137 (x60 x7 x131)) (x140 (x60 x23 x23)) (x83 (x60 x23 x56)) (x64 (x60 x131 x131)) (x85 (x60 x7 x10)) (x3 (x60 x56 x131)) (x86 (x60 x10 x23)) (x48 (x60 x131 x7)) (x16 (x60 x56 x23)) (x46 (x60 x10 x7)) (x34 (x60 x10 x10)) (x33 (x60 x56 x10)) (x147 (x60 x56 x56)) (x4 (x60 x23 x131)) (x89 (x60 x131 x10)) (x105 (x60 x56 x7)) (x66 (x60 x7 x7)) (x130 (x60 x7 x56)) (x72 (x60 x131 x56)) (x149 (x60 x7 x23)) (x139 (x60 x131 x23))) (and (and (and (and (and (and (not (= x149 x66)) (and (and (not (= x66 x130)) (and (and (not (= x137 x85)) (and (not (= x137 x66)) (and (not (= x137 x130)) (not (= x149 x137))))) (not (= x149 x130)))) (not (= x85 x130)))) (not (= x85 x149))) (not (= x66 x85))) (and (and (and (not (= x143 x140)) (and (and (and (not (= x83 x125)) (and (not (= x140 x83)) (and (not (= x143 x4)) (and (not (= x125 x4)) (and (not (= x140 x4)) (not (= x83 x4))))))) (not (= x143 x83))) (not (= x125 x140)))) (not (= x125 x143))) (and (and (not (= x89 x48)) (and (not (= x89 x139)) (and (not (= x48 x139)) (and (not (= x72 x89)) (and (not (= x72 x48)) (and (and (and (not (= x48 x64)) (and (not (= x64 x72)) (not (= x64 x139)))) (not (= x89 x64))) (not (= x72 x139)))))))) (and (not (= x33 x105)) (and (and (not (= x105 x16)) (and (not (= x147 x33)) (and (and (and (not (= x33 x3)) (and (and (not (= x147 x3)) (not (= x16 x3))) (not (= x105 x3)))) (not (= x147 x16))) (not (= x105 x147))))) (not (= x33 x16))))))) (and (not (= x34 x46)) (and (not (= x86 x34)) (and (and (and (not (= x112 x46)) (and (not (= x112 x86)) (and (not (= x13 x34)) (and (and (not (= x13 x86)) (not (= x13 x112))) (not (= x13 x46)))))) (not (= x34 x112))) (not (= x46 x86)))))) (and (and (not (= x85 x34)) (and (not (= x143 x34)) (and (not (= x85 x143)) (and (not (= x34 x33)) (and (not (= x85 x33)) (and (and (and (and (not (= x89 x143)) (not (= x33 x89))) (not (= x89 x85))) (not (= x89 x34))) (not (= x143 x33)))))))) (and (and (and (not (= x86 x149)) (and (not (= x86 x140)) (and (and (and (not (= x16 x149)) (and (not (= x16 x140)) (and (not (= x86 x139)) (and (not (= x149 x139)) (and (not (= x139 x16)) (not (= x139 x140))))))) (not (= x86 x16))) (not (= x149 x140))))) (and (and (not (= x137 x13)) (and (and (and (not (= x13 x3)) (and (and (and (not (= x64 x13)) (and (and (not (= x4 x64)) (not (= x3 x64))) (not (= x64 x137)))) (not (= x4 x3))) (not (= x3 x137)))) (not (= x4 x137))) (not (= x4 x13)))) (and (and (not (= x83 x112)) (and (not (= x130 x83)) (and (and (not (= x130 x147)) (and (and (and (and (not (= x72 x83)) (not (= x147 x72))) (not (= x72 x130))) (not (= x72 x112))) (not (= x147 x83)))) (not (= x147 x112))))) (not (= x112 x130))))) (and (not (= x46 x66)) (and (not (= x125 x46)) (and (and (not (= x105 x46)) (and (and (not (= x125 x105)) (and (and (not (= x66 x48)) (and (not (= x125 x48)) (not (= x48 x105)))) (not (= x48 x46)))) (not (= x105 x66)))) (not (= x125 x66))))))))))
(assert (or (or (or (= (x60 x23 x23) x23) (or (= x56 (x60 x56 x56)) (= x131 (x60 x131 x131)))) (= x7 (x60 x7 x7))) (= (x60 x10 x10) x10)))
(assert (let ((x139 (x60 x23 x131)) (x86 (x60 x23 x10)) (x34 (x60 x10 x10)) (x4 (x60 x131 x23)) (x125 (x60 x7 x23)) (x147 (x60 x56 x56)) (x3 (x60 x131 x56)) (x72 (x60 x56 x131)) (x33 (x60 x10 x56)) (x85 (x60 x10 x7)) (x130 (x60 x56 x7)) (x46 (x60 x7 x10)) (x48 (x60 x7 x131)) (x137 (x60 x131 x7)) (x83 (x60 x56 x23)) (x89 (x60 x10 x131)) (x16 (x60 x23 x56)) (x64 (x60 x131 x131)) (x105 (x60 x7 x56)) (x140 (x60 x23 x23)) (x143 (x60 x10 x23)) (x149 (x60 x23 x7)) (x13 (x60 x131 x10)) (x112 (x60 x56 x10)) (x66 (x60 x7 x7))) (and (or (or (or (= (x60 x143 x143) x23) (or (= x56 (x60 x33 x33)) (= (x60 x89 x89) x131))) (= x7 (x60 x85 x85))) (= x10 (x60 x34 x34))) (and (or (= (x60 x46 x46) x10) (or (= (x60 x66 x66) x7) (or (or (= (x60 x48 x48) x131) (= x56 (x60 x105 x105))) (= (x60 x125 x125) x23)))) (and (or (= x10 (x60 x86 x86)) (or (= x7 (x60 x149 x149)) (or (= x23 (x60 x140 x140)) (or (= x56 (x60 x16 x16)) (= (x60 x139 x139) x131))))) (and (or (= x10 (x60 x13 x13)) (or (or (= x23 (x60 x4 x4)) (or (= (x60 x64 x64) x131) (= x56 (x60 x3 x3)))) (= (x60 x137 x137) x7))) (or (or (= x7 (x60 x130 x130)) (or (= x23 (x60 x83 x83)) (or (= (x60 x72 x72) x131) (= (x60 x147 x147) x56)))) (= x10 (x60 x112 x112)))))))))
(assert (let ((x33 (x60 x56 x10)) (x142 (x60 x10 x56)) (x24 (x60 x10 x7)) (x146 (x60 x10 x10)) (x13 (x60 x131 x7)) (x72 (x60 x131 x10)) (x120 (x60 x23 x23)) (x130 (x60 x23 x131)) (x4 (x60 x131 x56)) (x46 (x60 x56 x23)) (x3 (x60 x131 x131)) (x89 (x60 x56 x7)) (x137 (x60 x131 x23)) (x112 (x60 x7 x131)) (x129 (x60 x7 x7)) (x156 (x60 x7 x10)) (x12 (x60 x7 x23)) (x116 (x60 x10 x23)) (x154 (x60 x23 x10)) (x83 (x60 x56 x131)) (x139 (x60 x10 x131)) (x117 (x60 x7 x56)) (x66 (x60 x56 x56)) (x98 (x60 x23 x7)) (x34 (x60 x23 x56))) (let ((x67 (= x7 x66)) (x9 (= x10 x98)) (x57 (= x7 x120)) (x19 (= x10 x4)) (x48 (= x4 x131)) (x14 (= x139 x10)) (x59 (= x33 x23)) (x95 (= x131 x46)) (x5 (= x130 x23)) (x145 (= x117 x131)) (x78 (= x33 x7)) (x124 (= x56 x146)) (x61 (= x131 x156)) (x152 (= x154 x23)) (x54 (= x112 x56)) (x99 (= x7 x46)) (x158 (= x7 x98)) (x25 (= x7 x116)) (x133 (= x10 x129)) (x96 (= x23 x156)) (x102 (= x56 x129)) (x94 (= x56 x120)) (x21 (= x10 x89)) (x115 (= x7 x154)) (x153 (= x46 x56)) (x97 (= x98 x56)) (x44 (= x56 x24)) (x69 (= x56 x33)) (x148 (= x89 x23)) (x85 (= x66 x56)) (x15 (= x13 x131)) (x84 (= x154 x131)) (x122 (= x23 x66)) (x30 (= x89 x7)) (x103 (= x117 x7)) (x132 (= x72 x7)) (x8 (= x34 x10)) (x76 (= x131 x12)) (x37 (= x137 x131)) (x77 (= x56 x116)) (x121 (= x98 x131)) (x79 (= x156 x56)) (x64 (= x131 x3)) (x74 (= x142 x56)) (x50 (= x156 x10)) (x75 (= x72 x56)) (x127 (= x131 x146)) (x27 (= x131 x130)) (x107 (= x7 x34)) (x92 (= x142 x10)) (x136 (= x46 x10)) (x118 (= x56 x154)) (x80 (= x23 x137)) (x51 (= x120 x10)) (x126 (= x23 x12)) (x155 (= x129 x23)) (x91 (= x7 x129)) (x86 (= x83 x131)) (x17 (= x7 x13)) (x109 (= x98 x23)) (x105 (= x66 x131)) (x47 (= x116 x131)) (x108 (= x46 x23)) (x141 (= x139 x56)) (x6 (= x34 x131)) (x36 (= x4 x23)) (x20 (= x131 x129)) (x1 (= x117 x23)) (x16 (= x3 x23)) (x71 (= x33 x10)) (x31 (= x137 x10)) (x119 (= x7 x146)) (x140 (= x7 x3)) (x110 (= x13 x23)) (x70 (= x131 x139)) (x134 (= x112 x7)) (x22 (= x23 x142)) (x45 (= x24 x131)) (x143 (= x56 x4)) (x135 (= x131 x89)) (x87 (= x117 x56)) (x104 (= x7 x12)) (x18 (= x23 x83)) (x73 (= x23 x112)) (x151 (= x142 x7)) (x43 (= x12 x10)) (x149 (= x10 x3)) (x55 (= x131 x142)) (x29 (= x10 x112)) (x101 (= x24 x23)) (x35 (= x10 x154)) (x150 (= x7 x139)) (x41 (= x56 x34)) (x128 (= x23 x72)) (x39 (= x130 x56)) (x26 (= x120 x131)) (x157 (= x72 x10)) (x38 (= x137 x56)) (x159 (= x130 x7)) (x147 (= x56 x3)) (x114 (= x33 x131)) (x123 (= x137 x7)) (x93 (= x10 x83)) (x144 (= x131 x72)) (x2 (= x120 x23)) (x62 (= x10 x117)) (x58 (= x56 x12)) (x106 (= x13 x56)) (x81 (= x24 x7)) (x32 (= x10 x146)) (x52 (= x10 x24)) (x82 (= x146 x23)) (x88 (= x7 x83)) (x53 (= x23 x139)) (x49 (= x23 x116)) (x63 (= x7 x156)) (x125 (= x56 x83)) (x100 (= x34 x23)) (x65 (= x66 x10)) (x42 (= x10 x116)) (x40 (= x130 x10)) (x68 (= x131 x112)) (x28 (= x13 x10)) (x113 (= x89 x56)) (x111 (= x4 x7))) (and (and (and (and (and (and (and (or (or (or x159 (or x88 x140)) x134) x150) (or (or (or x123 (or x111 x140)) x17) x132)) (and (and (or (or x110 (or (or x36 x16) x80)) x128) (or (or x73 (or (or x16 x18) x5)) x53)) (and (and (or x75 (or x106 (or (or x147 x143) x38))) (or (or (or (or x147 x125) x39) x54) x141)) (and (or (or x68 (or x27 (or x86 x64))) x70) (or (or x15 (or (or x48 x64) x37)) x144))))) (and (or (or (or x31 (or x149 x19)) x28) x157) (or (or x29 (or (or x93 x149) x40)) x14))) (and (and (or (or x21 (or x136 (or x65 x93))) x71) (or (or (or (or x19 x65) x8) x62) x92)) (and (and (and (or (or x1 (or (or x122 x36) x100)) x22) (or (or (or (or x122 x18) x108) x148) x59)) (and (and (or (or (or x6 (or x48 x105)) x145) x55) (or (or (or x95 (or x86 x105)) x135) x114)) (and (or x69 (or x113 (or x153 (or x85 x125)))) (or x74 (or (or x41 (or x85 x143)) x87))))) (and (or x78 (or x30 (or (or x88 x67) x99))) (or x151 (or (or (or x67 x111) x107) x103)))))) (and (and (or (or (or x51 (or x136 x31)) x43) x42) (or (or x9 (or (or x8 x40) x51)) x35)) (and (and (and (and (or (or x58 (or (or x38 x153) x94)) x77) (or (or (or x94 (or x39 x41)) x97) x118)) (and (or x47 (or (or (or x37 x95) x26) x76)) (or (or (or (or x6 x27) x26) x121) x84))) (and (or x152 (or (or (or x100 x5) x2) x109)) (or (or x126 (or (or x80 x108) x2)) x49))) (and (or (or (or (or x123 x99) x57) x104) x25) (or (or (or x57 (or x159 x107)) x158) x115))))) (and (and (or (or (or x43 (or x62 x29)) x133) x50) (or x52 (or x133 (or (or x28 x21) x9)))) (and (and (and (or x96 (or x155 (or x126 (or x1 x73)))) (or (or (or x109 (or x110 x148)) x155) x101)) (and (and (or x79 (or x102 (or (or x54 x87) x58))) (or (or x102 (or x97 (or x113 x106))) x44)) (and (or x61 (or x20 (or x76 (or x68 x145)))) (or x45 (or (or x121 (or x15 x135)) x20))))) (and (or (or (or x104 (or x103 x134)) x91) x63) (or x81 (or x91 (or x158 (or x17 x30)))))))) (and (and (or x32 (or (or (or x71 x157) x35) x50)) (or x32 (or x52 (or (or x14 x92) x42)))) (and (and (or (or (or (or x150 x151) x25) x81) x119) (or x119 (or x63 (or (or x132 x78) x115)))) (and (and (or x82 (or (or (or x59 x128) x152) x96)) (or (or (or (or x22 x53) x49) x101) x82)) (and (and (or x127 (or (or (or x144 x114) x84) x61)) (or x127 (or (or x47 (or x55 x70)) x45))) (and (or (or (or (or x69 x75) x118) x79) x124) (or (or x44 (or x77 (or x141 x74))) x124))))))))))
(assert (and (and (and (= x56 (x60 x131 x131)) (= x23 (x60 x131 x56))) (= (x60 x56 x10) x7)) (= (x60 x56 x23) x10)))
(assert (or (or (and (and (not (= x7 (x60 (x60 x7 x7) x7))) (and (not (= (x60 (x60 x7 x23) x7) x23)) (and (not (= x56 (x60 (x60 x7 x56) x7))) (not (= x131 (x60 (x60 x7 x131) x7)))))) (not (= (x60 (x60 x7 x10) x7) x10))) (or (and (not (= x10 (x60 (x60 x23 x10) x23))) (and (not (= (x60 (x60 x23 x7) x23) x7)) (and (not (= (x60 (x60 x23 x23) x23) x23)) (and (not (= x56 (x60 (x60 x23 x56) x23))) (not (= (x60 (x60 x23 x131) x23) x131)))))) (or (and (and (and (not (= (x60 (x60 x56 x23) x56) x23)) (and (not (= x131 (x60 (x60 x56 x131) x56))) (not (= (x60 (x60 x56 x56) x56) x56)))) (not (= (x60 (x60 x56 x7) x56) x7))) (not (= (x60 (x60 x56 x10) x56) x10))) (and (not (= x10 (x60 (x60 x131 x10) x131))) (and (and (and (not (= (x60 (x60 x131 x56) x131) x56)) (not (= (x60 (x60 x131 x131) x131) x131))) (not (= x23 (x60 (x60 x131 x23) x131)))) (not (= x7 (x60 (x60 x131 x7) x131)))))))) (and (and (not (= (x60 (x60 x10 x7) x10) x7)) (and (not (= (x60 (x60 x10 x23) x10) x23)) (and (not (= (x60 (x60 x10 x56) x10) x56)) (not (= x131 (x60 (x60 x10 x131) x10)))))) (not (= (x60 (x60 x10 x10) x10) x10)))))
(assert (and (and (and (or (= x23 (x60 x10 (x60 x23 x10))) (or (or (or (= x23 (x60 x131 (x60 x23 x131))) (= (x60 x56 (x60 x23 x56)) x23)) (= x23 (x60 x23 (x60 x23 x23)))) (= (x60 x7 (x60 x23 x7)) x23))) (and (or (= x56 (x60 x10 (x60 x56 x10))) (or (= x56 (x60 x7 (x60 x56 x7))) (or (or (= x56 (x60 x131 (x60 x56 x131))) (= (x60 x56 (x60 x56 x56)) x56)) (= x56 (x60 x23 (x60 x56 x23)))))) (or (or (= (x60 x7 (x60 x131 x7)) x131) (or (or (= x131 (x60 x56 (x60 x131 x56))) (= x131 (x60 x131 (x60 x131 x131)))) (= (x60 x23 (x60 x131 x23)) x131))) (= x131 (x60 x10 (x60 x131 x10)))))) (or (or (= x7 (x60 x7 (x60 x7 x7))) (or (= (x60 x23 (x60 x7 x23)) x7) (or (= x7 (x60 x56 (x60 x7 x56))) (= x7 (x60 x131 (x60 x7 x131)))))) (= x7 (x60 x10 (x60 x7 x10))))) (or (= x10 (x60 x10 (x60 x10 x10))) (or (or (= x10 (x60 x23 (x60 x10 x23))) (or (= x10 (x60 x131 (x60 x10 x131))) (= (x60 x56 (x60 x10 x56)) x10))) (= x10 (x60 x7 (x60 x10 x7)))))))
(check-sat)
(exit)
